
216 atoms
2 atom types
  -0.1184000000   21.86840000000 xlo xhi
   0.1116010000   22.09840000000 ylo yhi
  -0.0933990000   21.89340000000 zlo zhi
   0.0000000000    0.0000000000    0.0000000000 xy xz yz

Atoms # atomic
 
 1 1 18.35 1.38 16.49
 2 1 16.81 13.52 20.96
 3 1 5.46 4.45 9.86
 4 1 19.42 6.65 12.29
 5 1 0.26 10.09 6.76
 6 1 1.81 13.54 3.62
 7 1 11.86 19.87 17.81
 8 1 5.36 17.77 7.46
 9 1 12.11 21.81 8.29
 10 1 14.53 8.74 13.69
 11 1 9.83 11.1 6.27
 12 1 7.33 4.93 18.19
 13 1 6.71 21.95 8
 14 1 12.25 14.67 13.34
 15 1 5.54 21.51 13.24
 16 1 8.59 19.46 8.09
 17 1 1.3 6.12 13.1
 18 1 1.44 9.22 2.69
 19 1 14.91 12.28 15.75
 20 1 16.13 16.56 2.88
 21 1 15.19 21.97 18.24
 22 1 13.76 18.65 10.61
 23 1 18.26 20.21 2.6
 24 1 9.23 21.24 16.29
 25 1 13.67 0.24 14.45
 26 1 14.46 2.76 2.77
 27 1 8.58 7.41 14.11
 28 1 12.96 7.45 16.56
 29 1 9.08 18.59 20.18
 30 1 7.04 16.28 16.77
 31 1 21.15 6.65 20.35
 32 1 15.39 11.01 3.66
 33 1 1.48 17.18 4.89
 34 1 5.09 7.73 14.29
 35 1 17.01 14.83 9.74
 36 1 4.58 9.25 8.19
 37 1 11.35 8.98 20.04
 38 1 0.66 14.12 11.64
 39 1 8.71 9.1 9.91
 40 1 0.59 4.76 0.69
 41 1 20.31 1.69 12.4
 42 1 18.47 3.19 1.22
 43 1 20.02 4.32 9.54
 44 1 16.68 10.61 10.45
 45 1 13 9.22 8.19
 46 1 5.27 10.24 0.71
 47 1 12.41 5.07 21.6
 48 1 3.26 0.39 10.54
 49 1 1.66 18.14 9.65
 50 1 5.6 21.52 18.32
 51 1 4.14 2.69 5.48
 52 1 9.83 7.11 6.53
 53 1 9.71 1.24 12.02
 54 1 21.67 21.04 7.39
 55 1 8.07 7.92 1.21
 56 1 19.06 19.3 20.22
 57 1 1.06 10.2 14.81
 58 1 15 16.98 18.74
 59 1 1.87 8.81 18.93
 60 1 12.55 16.55 0.2
 61 1 12.35 14.02 18.57
 62 1 21.01 9.38 10.93
 63 1 11.38 14.38 3.46
 64 1 16.72 6.56 10.45
 65 1 11.42 2.65 15.05
 66 1 17.37 14.7 17.22
 67 1 11.17 16.23 7.96
 68 1 18.49 8.87 15.35
 69 1 4.88 15.05 12.97
 70 1 6.85 8.94 17.9
 71 1 17.89 8.63 0.91
 72 1 5.93 13.86 6.87
 73 1 19.28 2.42 4.61
 74 1 18.12 19.81 11.4
 75 1 3.26 12.68 16.52
 76 1 20.51 11.7 19.77
 77 1 1.96 20.56 21.38
 78 1 13.13 3.47 8.5
 79 1 7.43 18.54 3.71
 80 1 1.16 0.6 3.55
 81 1 10.19 10.98 14.73
 82 1 15.46 3.56 13.68
 83 1 20.48 15.79 7.48
 84 1 16.67 17.75 7.13
 85 1 2.1 7.82 9.64
 86 1 19.82 14.04 12.95
 87 1 16.21 3.93 6.26
 88 1 11.5 4.65 3.15
 89 1 11.65 18.39 4.05
 90 1 20.8 16.94 1.83
 91 1 17.86 19.24 15.94
 92 1 12.29 9.3 3.14
 93 1 11.86 10.2 11.66
 94 1 21.17 17.77 18.22
 95 1 1 21.65 16.01
 96 1 5.81 18.25 11.25
 97 1 0.55 5.86 17.14
 98 1 1.97 16.61 21.18
 99 1 17.82 12.01 6.21
 100 1 18.54 7.04 5.4
 101 1 9.97 18.27 11.75
 102 1 16.24 9.98 19.56
 103 1 19.78 12.78 3.1
 104 1 17.59 0.58 8.43
 105 1 9.48 0.65 1.73
 106 1 6.66 7.15 4.77
 107 1 3.05 2.64 14.09
 108 1 9.84 2.74 19.83
 109 2 5.23 14.38 15.76
 110 2 14.86 10.54 6.28
 111 2 21.47 1.03 5.62
 112 2 18.47 4.41 7.66
 113 2 1.67 8.72 12.37
 114 2 2.55 4.75 15.35
 115 2 19.74 21.97 9.72
 116 2 14.53 9.5 0.96
 117 2 12.58 3.24 5.33
 118 2 2.7 21.68 13.27
 119 2 11.13 2.68 0.3
 120 2 18.13 14.14 7.51
 121 2 11.3 20.57 10.61
 122 2 11.72 8.67 5.65
 123 2 13.19 2.64 12.57
 124 2 20.7 1.66 15.29
 125 2 17.07 13.05 3.81
 126 2 17.48 17.55 4.66
 127 2 1.77 19.92 2.12
 128 2 5.93 8.33 2.6
 129 2 3.58 2.11 2.73
 130 2 18.56 17.88 0.87
 131 2 21.64 10.03 18
 132 2 11.07 21.86 14.16
 133 2 6.31 21.74 15.74
 134 2 6.67 6.63 16.21
 135 2 11.34 14.05 6.55
 136 2 7.31 20.69 10.53
 137 2 6.6 7.37 11.99
 138 2 4.75 1.42 8.17
 139 2 16.37 0.67 2.51
 140 2 9.64 18.92 17.31
 141 2 17.74 17.18 18.71
 142 2 16 20.3 7.74
 143 2 18.27 3.86 11.49
 144 2 19.47 4.65 21.2
 145 2 9.21 2.3 16.78
 146 2 10.64 13.58 15.21
 147 2 14.52 14.77 16.92
 148 2 17.88 4.37 3.89
 149 2 16.37 17.57 9.93
 150 2 7.74 16.54 9.32
 151 2 0.29 7.59 0.83
 152 2 9.5 9.21 16.8
 153 2 9.25 20.35 3.18
 154 2 7.23 17.03 19.07
 155 2 20.91 2.36 2.02
 156 2 7.43 8.36 7.05
 157 2 6.35 19.85 6.38
 158 2 3.6 9.77 16.41
 159 2 17.75 21.6 13.31
 160 2 18.63 9.1 20.42
 161 2 2.53 11.82 1.17
 162 2 9.98 2.12 9.55
 163 2 6.68 9.5 20.5
 164 2 11.97 16.55 11.3
 165 2 6.87 17.66 13.7
 166 2 0.85 18.76 7.35
 167 2 17.36 20.49 18.38
 168 2 14.3 9.47 10.73
 169 2 13.67 5.21 1.73
 170 2 0.07 11.08 4.38
 171 2 3.23 21.84 19.56
 172 2 2.16 10.42 8.55
 173 2 3.92 6.39 7.99
 174 2 10.85 10.49 8.69
 175 2 20.8 8.1 6.67
 176 2 17.49 12.26 18.84
 177 2 0.15 18.54 20.4
 178 2 20.84 19.7 16.58
 179 2 17.01 12.72 12.44
 180 2 9.74 9.18 12.72
 181 2 1.48 15.65 1.77
 182 2 11.37 19.41 7.13
 183 2 13.43 16.57 2.99
 184 2 5.7 2.35 12.11
 185 2 10.25 11.13 2.8
 186 2 1.33 12.95 14.34
 187 2 18.69 8.48 10.48
 188 2 12.52 6.55 19.18
 189 2 3.74 19.94 10.48
 190 2 13.5 11.8 13.49
 191 2 19.25 14.88 15.48
 192 2 21.37 15.42 4.73
 193 2 9.22 21.97 20.04
 194 2 12.69 5.58 14.78
 195 2 17.17 7.44 13.69
 196 2 9.32 16.19 3.18
 197 2 21.2 6.93 14.74
 198 2 8.87 6.67 3.58
 199 2 3.65 16.4 10.6
 200 2 21.3 16.22 10.9
 201 2 20.85 12.41 10.69
 202 2 19.3 13.83 0.48
 203 2 14.17 15.01 20.69
 204 2 18.34 8.79 3.4
 205 2 15.02 2.25 16.63
 206 2 15.26 6.4 8.36
 207 2 13.09 18.33 20.11
 208 2 6.27 11.52 8.34
 209 2 15.09 1.64 7.66
 210 2 4.01 15.79 5.51
 211 2 13.27 10.9 19.51
 212 2 8.56 5.43 20.57
 213 2 1.64 5.9 19.5
 214 2 15.65 9.4 16.09
 215 2 21.68 5.98 10.9
 216 2 14.03 20.03 16.24
